Set parameter TSPort to value 51199
Set parameter TokenServer to value "open-license1.lanl.gov"
Set parameter TimeLimit to value 128
Set parameter Threads to value 1
Gurobi Optimizer version 10.0.3 build v10.0.3rc0 (linux64)

CPU model: Intel(R) Xeon(R) CPU E5-2695 v4 @ 2.10GHz, instruction set [SSE2|AVX|AVX2]
Thread count: 36 physical cores, 72 logical processors, using up to 1 threads

Optimize a model with 0 rows, 598 columns and 0 nonzeros
Model fingerprint: 0xad92ac9b
Model has 2588 quadratic objective terms
Variable types: 0 continuous, 598 integer (598 binary)
Coefficient statistics:
  Matrix range     [0e+00, 0e+00]
  Objective range  [2e+00, 3e+01]
  QObjective range [8e+00, 8e+00]
  Bounds range     [1e+00, 1e+00]
  RHS range        [0e+00, 0e+00]
Found heuristic solution: objective 0.0000000
Found heuristic solution: objective -1018.000000
Found heuristic solution: objective -3568.000000
Found heuristic solution: objective -3594.000000
Presolve time: 0.23s
Presolved: 2588 rows, 3186 columns, 7764 nonzeros
Variable types: 0 continuous, 3186 integer (3186 binary)

Root relaxation: objective -4.851000e+03, 753 iterations, 0.02 seconds (0.01 work units)

    Nodes    |    Current Node    |     Objective Bounds      |     Work
 Expl Unexpl |  Obj  Depth IntInf | Incumbent    BestBd   Gap | It/Node Time

     0     0 -4851.0000    0  598 -3594.0000 -4851.0000  35.0%     -    0s
     0     0 -4454.0000    0  806 -3594.0000 -4454.0000  23.9%     -    0s
     0     0 -4452.0000    0  811 -3594.0000 -4452.0000  23.9%     -    0s
     0     0 -4358.2500    0  878 -3594.0000 -4358.2500  21.3%     -    0s
     0     0 -4358.2500    0  878 -3594.0000 -4358.2500  21.3%     -    1s
     0     2 -4357.9167    0  876 -3594.0000 -4357.9167  21.3%     -    1s
   514   483 -3895.0000   64 1073 -3594.0000 -4193.9118  16.7%  79.4    5s
   534   496 -3956.2500   53 1759 -3594.0000 -3980.9372  10.8%  76.4   10s
   544   503 -3748.5000   83 2073 -3594.0000 -3926.0515  9.24%  75.0   15s
   552   508 -3879.7199   19 2470 -3594.0000 -3879.7199  7.95%  73.9   22s
   559   513 -3606.0000  118 2569 -3594.0000 -3854.4292  7.25%  73.0   27s
   561   514 -3849.1932   36 2621 -3594.0000 -3849.1932  7.10%  72.7   30s
   567   518 -3830.3144   40 2625 -3594.0000 -3830.3144  6.58%  72.0   35s
   574   523 -3723.0000   94 2698 -3594.0000 -3821.2551  6.32%  71.1   41s
   582   528 -3796.0000   75 2733 -3594.0000 -3814.7660  6.14%  70.1   45s
   593   536 -3810.2314   10 2774 -3594.0000 -3810.2314  6.02%  68.8   50s
   602   542 -3803.2288   50 2788 -3594.0000 -3803.2288  5.82%  67.8   55s
   614   550 -3797.1729   64 2757 -3594.0000 -3797.1729  5.65%  66.4   61s
   621   554 -3763.0000   87 2779 -3594.0000 -3792.5455  5.52%  65.7   65s
   636   564 -3788.1462   36 2833 -3594.0000 -3788.1462  5.40%  64.1   70s
   653   576 -3615.0000  121 2850 -3594.0000 -3783.9055  5.28%  62.5   75s
   670   587 -3781.1518    2 2862 -3594.0000 -3781.1518  5.21%  60.9   80s
   687   598 -3688.0000   96 2882 -3594.0000 -3778.0085  5.12%  59.4   85s
   711   614 -3765.5000   80 2889 -3594.0000 -3775.7084  5.06%  57.4   90s
   728   627 -3774.9519   76 2587 -3594.0000 -3774.9519  5.03%   321   99s
   729   627 -3629.0000  112 2744 -3594.0000 -3774.9519  5.03%   321  105s
   732   629 -3774.9519   67 2853 -3594.0000 -3774.9519  5.03%   319  110s
   742   636 -3771.9565   70 2870 -3594.0000 -3771.9565  4.95%   315  115s
   754   644 -3632.3333  116 2884 -3594.0000 -3768.9640  4.87%   310  120s
   765   651 -3766.5133   69 2893 -3594.0000 -3766.5133  4.80%   306  125s

Cutting planes:
  Gomory: 21
  MIR: 105
  Flow cover: 1077
  Zero half: 396
  Mod-K: 6
  RLT: 98
  BQP: 138

Explored 773 nodes (316742 simplex iterations) in 128.00 seconds (141.48 work units)
Thread count was 1 (of 72 available processors)

Solution count 4: -3594 -3568 -1018 0 

Time limit reached
Best objective -3.594000000000e+03, best bound -3.764000000000e+03, gap 4.7301%

User-callback calls 7736, time in user-callback 0.03 sec

BQP_SOLUTION, 598, 2588, -1331.000000, 128.000472, 1, 1, 1, -1, 1, 1, 1, 1, 1, 1, 1, 1, 1, 1, -1, 1, 1, 1, 1, -1, 1, 1, 1, 1, 1, -1, 1, 1, 1, -1, 1, 1, 1, 1, 1, 1, 1, 1, 1, -1, 1, 1, 1, 1, -1, 1, 1, 1, 1, 1, -1, 1, 1, 1, -1, 1, 1, 1, -1, -1, -1, 1, 1, -1, -1, 1, 1, 1, 1, -1, 1, 1, 1, -1, -1, 1, 1, 1, -1, -1, 1, 1, -1, 1, -1, 1, -1, 1, 1, -1, 1, 1, -1, -1, -1, -1, 1, 1, 1, -1, -1, 1, -1, 1, -1, -1, 1, 1, 1, -1, -1, -1, 1, 1, 1, -1, 1, 1, -1, -1, -1, 1, 1, -1, 1, 1, -1, 1, -1, 1, -1, -1, 1, -1, -1, -1, 1, 1, -1, 1, -1, 1, 1, -1, -1, 1, -1, 1, -1, -1, -1, -1, 1, 1, -1, -1, 1, -1, -1, -1, -1, 1, 1, -1, -1, -1, 1, -1, -1, 1, -1, -1, -1, -1, -1, 1, -1, 1, -1, -1, -1, -1, -1, -1, -1, 1, 1, -1, -1, -1, -1, -1, -1, -1, 1, -1, 1, -1, -1, 1, -1, -1, -1, -1, 1, -1, -1, 1, -1, 1, -1, -1, -1, 1, 1, -1, 1, -1, 1, 1, 1, -1, -1, -1, 1, 1, -1, 1, -1, 1, -1, -1, -1, 1, 1, 1, -1, 1, 1, 1, -1, 1, -1, 1, 1, -1, 1, -1, 1, 1, -1, 1, -1, 1, 1, -1, 1, 1, 1, 1, 1, 1, -1, 1, 1, 1, 1, 1, 1, -1, -1, -1, 1, 1, 1, -1, 1, -1, 1, -1, 1, -1, 1, 1, -1, -1, -1, 1, 1, 1, -1, -1, 1, 1, -1, -1, -1, 1, 1, -1, 1, 1, -1, 1, 1, -1, 1, -1, 1, -1, 1, 1, -1, 1, -1, 1, 1, -1, 1, -1, 1, 1, -1, 1, 1, 1, -1, 1, -1, -1, 1, -1, 1, -1, -1, 1, -1, -1, -1, -1, 1, -1, 1, -1, -1, 1, -1, -1, -1, -1, 1, 1, -1, 1, 1, 1, 1, -1, -1, -1, 1, -1, 1, 1, -1, 1, -1, 1, -1, -1, 1, -1, 1, -1, -1, 1, -1, 1, -1, 1, -1, 1, 1, -1, 1, 1, 1, 1, -1, -1, 1, 1, 1, -1, -1, -1, 1, 1, -1, -1, 1, 1, 1, -1, -1, -1, 1, 1, 1, 1, 1, 1, 1, -1, 1, -1, 1, 1, -1, 1, 1, 1, 1, -1, -1, 1, 1, 1, -1, -1, 1, 1, 1, -1, -1, 1, -1, 1, -1, -1, 1, -1, 1, -1, 1, 1, 1, -1, -1, -1, -1, 1, -1, -1, 1, -1, 1, 1, -1, -1, -1, 1, -1, -1, 1, -1, 1, -1, -1, -1, 1, -1, -1, -1, -1, 1, 1, -1, -1, 1, 1, -1, -1, -1, -1, -1, -1, 1, -1, 1, 1, 1, 1, 1, 1, -1, 1, -1, -1, 1, 1, 1, -1, -1, 1, 1, 1, -1, 1, 1, 1, 1, -1, -1, 1, 1, 1, -1, -1, 1, 1, 1, -1, 1, 1, 1, 1, -1, 1, 1, 1, 1, -1, -1, 1, 1, 1, -1, 1, -1, 1, -1, 1, 1, 1, 1, -1, -1, 1, 1, 1, -1, 1, 1, -1, 1, 1, -1, 1, 1, 1, 1, -1, 1, 1, 1, -1, -1, 1, -1, 1, -1, 1, 1, 1, -1, 1, 1, -1, 1, -1, 1, -1, 1, 1, 1, 1, -1, 1, 1, -1, 1, 1, 1, -1, 1, 1, -1
BQP_DATA, 598, 2588, -1331.000000, -1501.000000, -3594.000000, -3764.000000, 128.000472, 1605, 773
